node 0 w: 6.16, h: 12.95
node 1 w: 4.9, h: 12.95
node 2 w: 8.2026-06-21 11:59:28 - INFO - Set parameter WLSAccessID
2026-06-21 11:59:28 - INFO - Set parameter WLSSecret
2026-06-21 11:59:28 - INFO - Set parameter LicenseID to value 2756663
2026-06-21 11:59:28 - INFO - Academic license 2756663 - for non-commercial use only - registered to hu___@sjtu.edu.cn
2026-06-21 11:59:28 - INFO - Set parameter TimeLimit to value 300
2026-06-21 11:59:28 - INFO - Set parameter MIPGap to value 0
2026-06-21 11:59:28 - INFO - Set parameter MIPFocus to value 3
2026-06-21 11:59:28 - INFO - Set parameter Heuristics to value 0.5
2026-06-21 11:59:28 - INFO - Set parameter LogToConsole to value 1
2026-06-21 11:59:28 - INFO - Gurobi Optimizer version 13.0.1 build v13.0.1rc0 (linux64 - "Ubuntu 20.04.6 LTS")
2026-06-21 11:59:28 - INFO - 
2026-06-21 11:59:28 - INFO - CPU model: AMD Ryzen 9 9950X3D 16-Core Processor, instruction set [SSE2|AVX|AVX2|AVX512]
2026-06-21 11:59:28 - INFO - Thread count: 14 physical cores, 28 logical processors, using up to 28 threads
2026-06-21 11:59:28 - INFO - 
2026-06-21 11:59:28 - INFO - Non-default parameters:
2026-06-21 11:59:28 - INFO - TimeLimit  300
2026-06-21 11:59:28 - INFO - MIPGap  0
2026-06-21 11:59:28 - INFO - Heuristics  0.5
2026-06-21 11:59:28 - INFO - MIPFocus  3
2026-06-21 11:59:28 - INFO - 
2026-06-21 11:59:28 - INFO - Academic license 2756663 - for non-commercial use only - registered to hu___@sjtu.edu.cn
2026-06-21 11:59:28 - INFO - Optimize a model with 821 rows, 382 columns and 2791 nonzeros (Min)
2026-06-21 11:59:28 - INFO - Model fingerprint: 0x15a9d2a4
2026-06-21 11:59:28 - INFO - Model has 4 linear objective coefficients
2026-06-21 11:59:28 - INFO - Variable types: 160 continuous, 222 integer (222 binary)
2026-06-21 11:59:28 - INFO - Coefficient statistics:
2026-06-21 11:59:28 - INFO -   Matrix range     [3e-01, 5e+02]
2026-06-21 11:59:28 - INFO -   Objective range  [1e-04, 8e-01]
2026-06-21 11:59:28 - INFO -   Bounds range     [9e-01, 8e+06]
2026-06-21 11:59:28 - INFO -   RHS range        [9e-01, 2e+02]
2026-06-21 11:59:28 - INFO - 
2026-06-21 11:59:28 - INFO - Presolve removed 85 rows and 73 columns
2026-06-21 11:59:28 - INFO - Presolve time: 0.01s
2026-06-21 11:59:28 - INFO - Presolved: 736 rows, 309 columns, 2628 nonzeros
2026-06-21 11:59:28 - INFO - Variable types: 103 continuous, 206 integer (206 binary)
2026-06-21 11:59:28 - INFO - Root relaxation presolve removed 28 rows and 4 columns
2026-06-21 11:59:28 - INFO - Root relaxation presolved: 708 rows, 317 columns, 2576 nonzeros
2026-06-21 11:59:28 - INFO - 
2026-06-21 11:59:28 - INFO - 
2026-06-21 11:59:28 - INFO - Root relaxation: objective 2.718799e+00, 177 iterations, 0.00 seconds (0.00 work units)
2026-06-21 11:59:28 - INFO - 
2026-06-21 11:59:28 - INFO -     Nodes    |    Current Node    |     Objective Bounds      |     Work
2026-06-21 11:59:28 - INFO -  Expl Unexpl |  Obj  Depth IntInf | Incumbent    BestBd   Gap | It/Node Time
2026-06-21 11:59:28 - INFO - 
2026-06-21 11:59:28 - INFO -      0     0    2.71880    0   82          -    2.71880      -     -    0s
2026-06-21 11:59:28 - INFO -      0     0    2.72686    0  102          -    2.72686      -     -    0s
2026-06-21 11:59:28 - INFO -      0     0    2.72686    0   92          -    2.72686      -     -    0s
2026-06-21 11:59:28 - INFO -      0     0    5.01435    0   87          -    5.01435      -     -    0s
2026-06-21 11:59:28 - INFO -      0     0    5.12266    0  107          -    5.12266      -     -    0s
2026-06-21 11:59:28 - INFO -      0     0    5.12266    0   97          -    5.12266      -     -    0s
2026-06-21 11:59:28 - INFO -      0     0    5.90144    0   99          -    5.90144      -     -    0s
2026-06-21 11:59:28 - INFO -      0     0    6.52214    0  115          -    6.52214      -     -    0s
2026-06-21 11:59:28 - INFO -      0     0    6.52214    0  115          -    6.52214      -     -    0s
2026-06-21 11:59:28 - INFO -      0     0    6.52214    0  115          -    6.52214      -     -    0s
2026-06-21 11:59:28 - INFO -      0     0    7.23291    0  115          -    7.23291      -     -    0s
2026-06-21 11:59:28 - INFO -      0     0    7.23291    0  104          -    7.23291      -     -    0s
2026-06-21 11:59:29 - INFO -      0     2    7.23291    0  104          -    7.23291      -     -    0s
2026-06-21 11:59:32 - INFO - 
2026-06-21 11:59:32 - INFO - Cutting planes:
2026-06-21 11:59:32 - INFO -   Learned: 2
2026-06-21 11:59:32 - INFO -   Gomory: 58
2026-06-21 11:59:32 - INFO -   Lift-and-project: 34
2026-06-21 11:59:32 - INFO -   Implied bound: 1
2026-06-21 11:59:32 - INFO -   MIR: 18
2026-06-21 11:59:32 - INFO -   Flow cover: 175
2026-06-21 11:59:32 - INFO -   Inf proof: 2
2026-06-21 11:59:32 - INFO -   RLT: 1
2026-06-21 11:59:32 - INFO -   PSD: 2
2026-06-21 11:59:32 - INFO - 
2026-06-21 11:59:32 - INFO - Explored 7155 nodes (194046 simplex iterations) in 3.96 seconds (6.14 work units)
2026-06-21 11:59:32 - INFO - Thread count was 28 (of 28 available processors)
2026-06-21 11:59:32 - INFO - 
2026-06-21 11:59:32 - INFO - Solution count 0
2026-06-21 11:59:32 - INFO - 
2026-06-21 11:59:32 - INFO - Model is infeasible or unbounded
2026-06-21 11:59:32 - INFO - Best objective -, best bound -, gap -
2026-06-21 11:59:32 - INFO - Set parameter TimeLimit to value 300
2026-06-21 11:59:32 - INFO - Set parameter MIPGap to value 0.3
2026-06-21 11:59:32 - INFO - Set parameter MIPFocus to value 3
2026-06-21 11:59:32 - INFO - Set parameter Heuristics to value 0.5
2026-06-21 11:59:32 - INFO - Set parameter LogToConsole to value 1
2026-06-21 11:59:32 - INFO - Gurobi Optimizer version 13.0.1 build v13.0.1rc0 (linux64 - "Ubuntu 20.04.6 LTS")
2026-06-21 11:59:32 - INFO - 
2026-06-21 11:59:32 - INFO - CPU model: AMD Ryzen 9 9950X3D 16-Core Processor, instruction set [SSE2|AVX|AVX2|AVX512]
2026-06-21 11:59:32 - INFO - Thread count: 14 physical cores, 28 logical processors, using up to 28 threads
2026-06-21 11:59:32 - INFO - 
2026-06-21 11:59:32 - INFO - Non-default parameters:
2026-06-21 11:59:32 - INFO - TimeLimit  300
2026-06-21 11:59:32 - INFO - MIPGap  0.3
2026-06-21 11:59:32 - INFO - Heuristics  0.5
2026-06-21 11:59:32 - INFO - MIPFocus  3
2026-06-21 11:59:32 - INFO - 
2026-06-21 11:59:32 - INFO - Academic license 2756663 - for non-commercial use only - registered to hu___@sjtu.edu.cn
2026-06-21 11:59:32 - INFO - Optimize a model with 821 rows, 382 columns and 2791 nonzeros (Min)
2026-06-21 11:59:32 - INFO - Model fingerprint: 0x15a9d2a4
2026-06-21 11:59:32 - INFO - Model has 4 linear objective coefficients
2026-06-21 11:59:32 - INFO - Variable types: 160 continuous, 222 integer (222 binary)
2026-06-21 11:59:32 - INFO - Coefficient statistics:
2026-06-21 11:59:32 - INFO -   Matrix range     [3e-01, 5e+02]
2026-06-21 11:59:32 - INFO -   Objective range  [1e-04, 8e-01]
2026-06-21 11:59:32 - INFO -   Bounds range     [9e-01, 8e+06]
2026-06-21 11:59:32 - INFO -   RHS range        [9e-01, 2e+02]
2026-06-21 11:59:32 - INFO - 
2026-06-21 11:59:32 - INFO - Presolved: 736 rows, 309 columns, 2628 nonzeros
2026-06-21 11:59:32 - INFO - 
2026-06-21 11:59:32 - INFO - Continuing optimization...
2026-06-21 11:59:32 - INFO - 
2026-06-21 11:59:32 - INFO - 
2026-06-21 11:59:32 - INFO - Cutting planes:
2026-06-21 11:59:32 - INFO -   Learned: 2
2026-06-21 11:59:32 - INFO -   Gomory: 58
2026-06-21 11:59:32 - INFO -   Lift-and-project: 34
2026-06-21 11:59:32 - INFO -   Implied bound: 1
2026-06-21 11:59:32 - INFO -   MIR: 18
2026-06-21 11:59:32 - INFO -   Flow cover: 175
2026-06-21 11:59:32 - INFO -   Inf proof: 2
2026-06-21 11:59:32 - INFO -   RLT: 1
2026-06-21 11:59:32 - INFO -   PSD: 2
2026-06-21 11:59:32 - INFO - 
2026-06-21 11:59:32 - INFO - Explored 7155 nodes (194046 simplex iterations) in 3.97 seconds (6.14 work units)
2026-06-21 11:59:32 - INFO - Most recent optimization runtime was 0.00 seconds (0.00 work units)
2026-06-21 11:59:32 - INFO - Thread count was 28 (of 28 available processors)
2026-06-21 11:59:32 - INFO - 
2026-06-21 11:59:32 - INFO - Solution count 0
2026-06-21 11:59:32 - INFO - 
2026-06-21 11:59:32 - INFO - Model is infeasible or unbounded
2026-06-21 11:59:32 - INFO - Best objective -, best bound -, gap -
2026-06-21 11:59:32 - INFO - Set parameter TimeLimit to value 3600
2026-06-21 11:59:32 - INFO - Set parameter MIPGap to value 0.8
2026-06-21 11:59:32 - INFO - Set parameter MIPFocus to value 3
2026-06-21 11:59:32 - INFO - Set parameter Heuristics to value 0.5
2026-06-21 11:59:32 - INFO - Set parameter LogToConsole to value 1
2026-06-21 11:59:32 - INFO - Gurobi Optimizer version 13.0.1 build v13.0.1rc0 (linux64 - "Ubuntu 20.04.6 LTS")
2026-06-21 11:59:32 - INFO - 
2026-06-21 11:59:32 - INFO - CPU model: AMD Ryzen 9 9950X3D 16-Core Processor, instruction set [SSE2|AVX|AVX2|AVX512]
2026-06-21 11:59:32 - INFO - Thread count: 14 physical cores, 28 logical processors, using up to 28 threads
2026-06-21 11:59:32 - INFO - 
2026-06-21 11:59:32 - INFO - Non-default parameters:
2026-06-21 11:59:32 - INFO - TimeLimit  3600
2026-06-21 11:59:32 - INFO - MIPGap  0.8
2026-06-21 11:59:32 - INFO - Heuristics  0.5
2026-06-21 11:59:32 - INFO - MIPFocus  3
2026-06-21 11:59:32 - INFO - 
2026-06-21 11:59:32 - INFO - Academic license 2756663 - for non-commercial use only - registered to hu___@sjtu.edu.cn
2026-06-21 11:59:32 - INFO - Optimize a model with 821 rows, 382 columns and 2791 nonzeros (Min)
2026-06-21 11:59:32 - INFO - Model fingerprint: 0x15a9d2a4
2026-06-21 11:59:32 - INFO - Model has 4 linear objective coefficients
2026-06-21 11:59:32 - INFO - Variable types: 160 continuous, 222 integer (222 binary)
2026-06-21 11:59:32 - INFO - Coefficient statistics:
2026-06-21 11:59:32 - INFO -   Matrix range     [3e-01, 5e+02]
2026-06-21 11:59:32 - INFO -   Objective range  [1e-04, 8e-01]
2026-06-21 11:59:32 - INFO -   Bounds range     [9e-01, 8e+06]
2026-06-21 11:59:32 - INFO -   RHS range        [9e-01, 2e+02]
2026-06-21 11:59:32 - INFO - 
2026-06-21 11:59:32 - INFO - Presolved: 736 rows, 309 columns, 2628 nonzeros
2026-06-21 11:59:32 - INFO - 
2026-06-21 11:59:32 - INFO - Continuing optimization...
2026-06-21 11:59:32 - INFO - 
2026-06-21 11:59:32 - INFO - 
2026-06-21 11:59:32 - INFO - Cutting planes:
2026-06-21 11:59:32 - INFO -   Learned: 2
2026-06-21 11:59:32 - INFO -   Gomory: 58
2026-06-21 11:59:32 - INFO -   Lift-and-project: 34
2026-06-21 11:59:32 - INFO -   Implied bound: 1
2026-06-21 11:59:32 - INFO -   MIR: 18
2026-06-21 11:59:32 - INFO -   Flow cover: 175
2026-06-21 11:59:32 - INFO -   Inf proof: 2
2026-06-21 11:59:32 - INFO -   RLT: 1
2026-06-21 11:59:32 - INFO -   PSD: 2
2026-06-21 11:59:32 - INFO - 
2026-06-21 11:59:32 - INFO - Explored 7155 nodes (194046 simplex iterations) in 3.97 seconds (6.14 work units)
2026-06-21 11:59:32 - INFO - Most recent optimization runtime was 0.00 seconds (0.00 work units)
2026-06-21 11:59:32 - INFO - Thread count was 28 (of 28 available processors)
2026-06-21 11:59:32 - INFO - 
2026-06-21 11:59:32 - INFO - Solution count 0
2026-06-21 11:59:32 - INFO - 
2026-06-21 11:59:32 - INFO - Model is infeasible or unbounded
2026-06-21 11:59:32 - INFO - Best objective -, best bound -, gap -
2026-06-21 11:59:32 - INFO - 
EMIB returned 0 solution(s) (max 1).
28 threads

Non-default parameters:
TimeLimit  3600
MIPGap  0.8
Heuristics  0.5
MIPFocus  3

Academic license 2756663 - for non-commercial use only - registered to hu___@sjtu.edu.cn
Optimize a model with 821 rows, 382 columns and 2791 nonzeros (Min)
Model fingerprint: 0x15a9d2a4
Model has 4 linear objective coefficients
Variable types: 160 continuous, 222 integer (222 binary)
Coefficient statistics:
  Matrix range     [3e-01, 5e+02]
  Objective range  [1e-04, 8e-01]
  Bounds range     [9e-01, 8e+06]
  RHS range        [9e-01, 2e+02]

Presolved: 736 rows, 309 columns, 2628 nonzeros

Continuing optimization...


Cutting planes:
  Learned: 2
  Gomory: 58
  Lift-and-project: 34
  Implied bound: 1
  MIR: 18
  Flow cover: 175
  Inf proof: 2
  RLT: 1
  PSD: 2

Explored 7155 nodes (194046 simplex iterations) in 3.97 seconds (6.14 work units)
Most recent optimization runtime was 0.00 seconds (0.00 work units)
Thread count was 28 (of 28 available processors)

Solution count 0

Model is infeasible or unbounded
Best objective -, best bound -, gap -
[EMIB] No feasible solution: MIPGap=0.8, status=4, time=0.00s, SolCount=0
[EMIB] Search failed, no feasible solution
  ✓ EMIB: 0 solution(s)
